Version identifier: 22.1.0.0 | 2022-03-09 | 1a383f8ce
CPXPARAM_Threads                                 1
CPXPARAM_MIP_Strategy_VariableSelect             3
CPXPARAM_TimeLimit                               593.26495578699996
1 of 1 MIP starts provided solutions.
MIP start 'm1' defined initial solution with objective 281.0000.
Tried aggregator 1 time.
MIP Presolve eliminated 11 rows and 0 columns.
MIP Presolve modified 175 coefficients.
Reduced MIP has 1815 rows, 7800 columns, and 125454 nonzeros.
Reduced MIP has 7800 binaries, 0 generals, 0 SOSs, and 0 indicators.
Presolve time = 0.18 sec. (227.19 ticks)
Probing time = 0.03 sec. (24.92 ticks)
Tried aggregator 1 time.
Detecting symmetries...
MIP Presolve modified 12 coefficients.
Reduced MIP has 1815 rows, 7800 columns, and 125754 nonzeros.
Reduced MIP has 7800 binaries, 0 generals, 0 SOSs, and 0 indicators.
Presolve time = 0.14 sec. (171.91 ticks)
Probing time = 0.03 sec. (24.94 ticks)
Clique table members: 984.
MIP emphasis: balance optimality and feasibility.
MIP search method: dynamic search.
Parallel mode: none, using 1 thread.
Root relaxation solution time = 4.33 sec. (5322.70 ticks)

        Nodes                                         Cuts/
   Node  Left     Objective  IInf  Best Integer    Best Bound    ItCnt     Gap

*     0+    0                          281.0000    45150.0000              --- 
      0     0      300.0000  1148      281.0000      300.0000    12653    6.76%
      0     0      300.0000   511      281.0000      Cuts: 17    33578    6.76%
      0     0      300.0000   627      281.0000      Cuts: 20    57427    6.76%
      0     0      300.0000   463      281.0000      Cuts: 20    75962    6.76%
      0     0      300.0000   379      281.0000    Cliques: 2    98261    6.76%
Heuristic still looking.
Detecting symmetries...
      0     2      300.0000   194      281.0000      300.0000    98261    6.76%
Elapsed time = 150.74 sec. (167458.91 ticks, tree = 0.01 MB, solutions = 1)
      1     3      300.0000   478      281.0000      300.0000   108770    6.76%
      2     4      300.0000  1125      281.0000      300.0000   113755    6.76%
      3     5      300.0000   882      281.0000      300.0000   120750    6.76%
      4     6      300.0000   499      281.0000      300.0000   120856    6.76%
      5     7      300.0000   591      281.0000      300.0000   127659    6.76%
      6     8      300.0000   504      281.0000      300.0000   127737    6.76%
      7     9      300.0000  1358      281.0000      300.0000   135354    6.76%
      8    10      300.0000  1214      281.0000      300.0000   136251    6.76%
      9    11      300.0000  1201      281.0000      300.0000   136409    6.76%
     10    12      300.0000   455      281.0000      300.0000   138066    6.76%
Elapsed time = 168.21 sec. (187391.81 ticks, tree = 0.12 MB, solutions = 1)
     12    14      300.0000   492      281.0000      300.0000   141290    6.76%
     13    15      300.0000   850      281.0000      300.0000   142810    6.76%
     14    16      300.0000  1477      281.0000      300.0000   146507    6.76%
     17    19      300.0000   541      281.0000      300.0000   150448    6.76%
     18    20      300.0000   661      281.0000      300.0000   153410    6.76%
     20    22      300.0000   712      281.0000      300.0000   161474    6.76%
     23    25      300.0000   553      281.0000      300.0000   161819    6.76%
     24    26      300.0000   517      281.0000      300.0000   165734    6.76%
     25    27      300.0000  1273      281.0000      300.0000   168720    6.76%
     27    29      300.0000   528      281.0000      300.0000   171868    6.76%
Elapsed time = 181.24 sec. (202643.30 ticks, tree = 0.40 MB, solutions = 1)
     29    31      300.0000   463      281.0000      300.0000   176033    6.76%
     30    32      300.0000   423      281.0000      300.0000   190982    6.76%
     32    34      300.0000   452      281.0000      300.0000   197057    6.76%
     34    36      300.0000   374      281.0000      300.0000   200401    6.76%
     36    38      300.0000   375      281.0000      300.0000   203497    6.76%
     38    40      300.0000   398      281.0000      300.0000   210546    6.76%
     40    42      300.0000   385      281.0000      300.0000   214249    6.76%
     41    43      300.0000  1224      281.0000      300.0000   217262    6.76%
     43    45      300.0000   346      281.0000      300.0000   222502    6.76%
     44    46      300.0000   429      281.0000      300.0000   230850    6.76%
Elapsed time = 200.91 sec. (224290.98 ticks, tree = 0.54 MB, solutions = 1)
     46    48      300.0000   384      281.0000      300.0000   237970    6.76%
     48    50      300.0000   368      281.0000      300.0000   246641    6.76%
     50    52      300.0000   334      281.0000      300.0000   252081    6.76%
     51    53      300.0000  1229      281.0000      300.0000   255429    6.76%
     53    55      300.0000   346      281.0000      300.0000   259550    6.76%
     56    58      300.0000   311      281.0000      300.0000   263430    6.76%
     58    60      300.0000   311      281.0000      300.0000   268974    6.76%
     60    62      300.0000   289      281.0000      300.0000   274821    6.76%
     61    63      300.0000   724      281.0000      300.0000   285991    6.76%
     63    65      300.0000   434      281.0000      300.0000   292590    6.76%
Elapsed time = 220.13 sec. (244634.76 ticks, tree = 0.84 MB, solutions = 1)
     64    66      300.0000   313      281.0000      300.0000   302072    6.76%
     65    67      300.0000   956      281.0000      300.0000   312384    6.76%
     66    68      300.0000   299      281.0000      300.0000   317329    6.76%
     67    69      300.0000   875      281.0000      300.0000   325273    6.76%
     68    70      300.0000   996      281.0000      300.0000   333094    6.76%
     69    71      300.0000   633      281.0000      300.0000   340586    6.76%
     70    72      300.0000   595      281.0000      300.0000   341895    6.76%
     71    73      300.0000   587      281.0000      300.0000   347300    6.76%
     72    74      300.0000   595      281.0000      300.0000   355151    6.76%
     73    75      300.0000   602      281.0000      300.0000   359946    6.76%
Elapsed time = 245.98 sec. (272868.45 ticks, tree = 1.00 MB, solutions = 1)
     74    76      300.0000   607      281.0000      300.0000   363255    6.76%
     76    78      300.0000   591      281.0000      300.0000   365136    6.76%
     79    81      300.0000   555      281.0000      300.0000   367327    6.76%
     80    82      300.0000   560      281.0000      300.0000   368769    6.76%
     82    84      300.0000   701      281.0000      300.0000   372395    6.76%
     85    87      300.0000   517      281.0000      300.0000   376375    6.76%
     88    90      300.0000   705      281.0000      300.0000   382822    6.76%
     90    92      300.0000   628      281.0000      300.0000   385973    6.76%
     92    94      300.0000   709      281.0000      300.0000   391941    6.76%
     94    96      300.0000   507      281.0000      300.0000   394915    6.76%
Elapsed time = 261.25 sec. (289119.67 ticks, tree = 1.37 MB, solutions = 1)
     96    98      300.0000   504      281.0000      300.0000   399131    6.76%
     98   100      300.0000   501      281.0000      300.0000   402151    6.76%
    100   102      300.0000   509      281.0000      300.0000   404961    6.76%
    102   104      300.0000   679      281.0000      300.0000   412623    6.76%
    105   107      300.0000   462      281.0000      300.0000   416248    6.76%
    108   110      300.0000   444      281.0000      300.0000   419024    6.76%
    109   111      300.0000   551      281.0000      300.0000   424971    6.76%
    111   113      300.0000   411      281.0000      300.0000   429823    6.76%
    114   116      300.0000   525      281.0000      300.0000   441034    6.76%
    116   118      300.0000   521      281.0000      300.0000   450083    6.76%
Elapsed time = 274.50 sec. (302734.80 ticks, tree = 1.73 MB, solutions = 1)
    120   122      300.0000   355      281.0000      300.0000   451795    6.76%
    121   123      300.0000   545      281.0000      300.0000   457515    6.76%
    123   125      300.0000   544      281.0000      300.0000   463716    6.76%
    125   127      300.0000   529      281.0000      300.0000   471715    6.76%
    128   130      300.0000   334      281.0000      300.0000   474213    6.76%
    130   132      300.0000   339      281.0000      300.0000   480058    6.76%
    131   133      300.0000   506      281.0000      300.0000   486080    6.76%
    133   135      300.0000   516      281.0000      300.0000   491812    6.76%
    135   137      300.0000   488      281.0000      300.0000   500904    6.76%
    137   139      300.0000   322      281.0000      300.0000   508640    6.76%
Elapsed time = 288.28 sec. (316480.11 ticks, tree = 2.12 MB, solutions = 1)
    140   142      300.0000   518      281.0000      300.0000   515011    6.76%
    142   144      300.0000   596      281.0000      300.0000   521459    6.76%
    144   146      300.0000   493      281.0000      300.0000   526953    6.76%
    145   147      300.0000   548      281.0000      300.0000   535032    6.76%
    147   149      300.0000   536      281.0000      300.0000   544387    6.76%
    149   151      300.0000   578      281.0000      300.0000   554873    6.76%
    150   152      300.0000   542      281.0000      300.0000   565813    6.76%
    152   154      300.0000   487      281.0000      300.0000   569430    6.76%
    155   157      300.0000   473      281.0000      300.0000   574414    6.76%
    157   159      300.0000   417      281.0000      300.0000   587007    6.76%
Elapsed time = 304.84 sec. (333616.10 ticks, tree = 2.47 MB, solutions = 1)
    158   159      299.0000   670      281.0000      300.0000   599481    6.76%
    161   162      300.0000   386      281.0000      300.0000   602571    6.76%
    163   163      300.0000   386      281.0000      300.0000   609352    6.76%
    164   163      299.5124   607      281.0000      300.0000   618070    6.76%
    166   164      299.5465   649      281.0000      300.0000   644926    6.76%
    168   165      299.3333   636      281.0000      300.0000   656746    6.76%
    171   167      299.7737   698      281.0000      300.0000   670416    6.76%
    173   168      299.5087   595      281.0000      300.0000   678369    6.76%
    175   169      299.5507   593      281.0000      300.0000   690156    6.76%
    180   172      300.0000   380      281.0000      300.0000   714817    6.76%
Elapsed time = 327.71 sec. (355951.35 ticks, tree = 2.68 MB, solutions = 1)
    182   173      299.5547   674      281.0000      300.0000   745856    6.76%
    184   174      300.0000   416      281.0000      300.0000   763554    6.76%
    187   176      299.3307   631      281.0000      300.0000   776799    6.76%
    189   178      299.9474   712      281.0000      300.0000   793203    6.76%
    195   182      300.0000   426      281.0000      300.0000   812223    6.76%
    200   184      299.0000   554      281.0000      300.0000   839767    6.76%
    202   185      299.6233   627      281.0000      300.0000   866021    6.76%
    205   187      300.0000   411      281.0000      300.0000   878062    6.76%
    207   188      300.0000   352      281.0000      300.0000   893440    6.76%
    209   190      299.9285   702      281.0000      300.0000   908061    6.76%
Elapsed time = 372.88 sec. (402789.35 ticks, tree = 2.89 MB, solutions = 1)
    213   192      299.0926   657      281.0000      300.0000   931896    6.76%
    217   194      299.8371   644      281.0000      300.0000   974815    6.76%
    221   196      299.7725   588      281.0000      300.0000   995490    6.76%
    227   200      299.6779   576      281.0000      300.0000  1007490    6.76%
    232   203      300.0000   469      281.0000      300.0000  1018125    6.76%
    237   205      299.0000   629      281.0000      300.0000  1029200    6.76%
    240   206      299.0000   581      281.0000      300.0000  1035586    6.76%
    246   210      299.0000   659      281.0000      300.0000  1043881    6.76%
    252   215      300.0000   433      281.0000      300.0000  1050918    6.76%
    257   218      299.9515   640      281.0000      300.0000  1060856    6.76%
Elapsed time = 416.04 sec. (450742.95 ticks, tree = 3.37 MB, solutions = 1)
    262   222      300.0000   421      281.0000      300.0000  1067407    6.76%
    266   224      300.0000   417      281.0000      300.0000  1077545    6.76%
    270   226      299.0000   586      281.0000      300.0000  1085332    6.76%
    276   229      299.3478   636      281.0000      300.0000  1097021    6.76%
    282   232      299.3714   604      281.0000      300.0000  1107706    6.76%
    290   237      298.8536   638      281.0000      300.0000  1116779    6.76%
    296   240      299.3499   628      281.0000      300.0000  1128872    6.76%
    300   243      300.0000   462      281.0000      300.0000  1135078    6.76%
    306   248      300.0000   411      281.0000      300.0000  1144064    6.76%
    313   250      298.7463   537      281.0000      300.0000  1154740    6.76%
Elapsed time = 453.12 sec. (493886.14 ticks, tree = 3.95 MB, solutions = 1)
    321   256      299.0000   514      281.0000      300.0000  1163831    6.76%
    330   260      298.0000   429      281.0000      300.0000  1176048    6.76%
    338   264      298.4928   561      281.0000      300.0000  1188825    6.76%
    345   268      298.4815   530      281.0000      300.0000  1198596    6.76%
    353   275      299.0000   463      281.0000      300.0000  1207978    6.76%
    360   280      299.0000   370      281.0000      300.0000  1216813    6.76%
    367   283      298.5192   412      281.0000      300.0000  1230333    6.76%
    375   290      299.0000   393      281.0000      300.0000  1238799    6.76%
    384   295      298.0000   573      281.0000      300.0000  1248231    6.76%
    392   299      298.0000   501      281.0000      300.0000  1256318    6.76%
Elapsed time = 490.68 sec. (535880.03 ticks, tree = 4.80 MB, solutions = 1)
    400   304      299.0000   430      281.0000      300.0000  1264211    6.76%
    409   309      298.0000   482      281.0000      300.0000  1274295    6.76%
    417   312      297.0000   504      281.0000      300.0000  1285401    6.76%
    426   318      298.0000   404      281.0000      300.0000  1297239    6.76%
    435   322      297.0000   459      281.0000      300.0000  1309789    6.76%
    446   330      297.0000   348      281.0000      300.0000  1317967    6.76%
    457   329    infeasible            281.0000      300.0000  1328651    6.76%
    468   330      297.0000   373      281.0000      300.0000  1340221    6.76%
    478   329      300.0000   480      281.0000      300.0000  1355389    6.76%
    481   332      300.0000   981      281.0000      300.0000  1359492    6.76%
Elapsed time = 529.44 sec. (580095.96 ticks, tree = 5.36 MB, solutions = 1)
    485   336      300.0000   669      281.0000      300.0000  1365223    6.76%
    490   341      300.0000   659      281.0000      300.0000  1370200    6.76%
    494   345      300.0000   651      281.0000      300.0000  1376808    6.76%
Starting limited solution polishing.
    500   351      300.0000   768      281.0000      300.0000  1382536    6.76%
    504   355      300.0000   626      281.0000      300.0000  1388764    6.76%
    509   360      300.0000   618      281.0000      300.0000  1394681    6.76%
    514   365      300.0000   620      281.0000      300.0000  1401089    6.76%
    519   370      300.0000   766      281.0000      300.0000  1408322    6.76%
    520   371      300.0000   625      281.0000      300.0000  1409067    6.76%
    525   376      300.0000   688      281.0000      300.0000  1415078    6.76%
Elapsed time = 569.39 sec. (627369.73 ticks, tree = 6.12 MB, solutions = 1)
    530   380      299.0000   794      281.0000      300.0000  1421591    6.76%
    536   386      300.0000   581      281.0000      300.0000  1429111    6.76%
    542   392      300.0000   664      281.0000      300.0000  1435858    6.76%
    547   396      300.0000   686      281.0000      300.0000  1442586    6.76%
    553   402      300.0000   617      281.0000      300.0000  1448393    6.76%
    558   406      300.0000   610      281.0000      300.0000  1456165    6.76%

Clique cuts applied:  34
Zero-half cuts applied:  5

Root node processing (before b&c):
  Real time             =  150.53 sec. (167274.36 ticks)
Sequential b&c:
  Real time             =  442.74 sec. (488212.14 ticks)
                          ------------
Total (root+branch&cut) =  593.27 sec. (655486.50 ticks)
Primal:	281
Dual:	300
Status:	Feasible
Time:	593.27
Sequence:
	12
	17
	13
	3
	0
	17
	11
	19
	0
	4
	1
	24
	21
	10
	15
	24
	21
	23
	2
	23
	5
	16
	15
	10
	5
	16
	6
	4
	18
	8
	13
	2
	20
	21
	24
	6
	4
	18
	19
	13
	15
	4
	18
	6
	20
	15
	4
	11
	2
	20
	1
	17
	21
	20
	15
	10
	1
	18
	6
	10
	15
	20
	21
	24
	22
	23
	2
	20
	22
	11
	22
	20
	2
	1
	10
	15
	7
	15
	10
	1
	0
	1
	23
	2
	23
	21
	8
	11
	19
	18
	7
	15
	11
	7
	0
	1
	8
	14
	8
	21
	24
	22
	20
	5
	16
	1
	10
	15
	24
	21
	24
	2
	20
	1
	17
	12
	6
	16
	5
	16
	5
	24
	6
	17
	13
	3
	18
	2
	23
	6
	18
	4
	13
	8
	21
	24
	21
	11
	22
	20
	6
	18
	1
	10
	15
	10
	1
	0
	3
	0
	3
	18
	19
	18
	19
	12
	8
	0
	19
	12
	8
	11
	7
	0
	3
	11
	17
	13
	2
	24
	5
	24
	21
	20
	15
	12
	3
	0
	19
	18
	19
	12
	8
	14
	3
	0
	19
	12
	8
	14
	15
	7
	13
	8
	12
	17
	6
	20
	2
	23
	5
	16
	21
	23
	15
	4
	0
	19
	11
	17
	18
	19
	13
	17
	0
	3
	13
	17
	5
	13
	15
	21
	24
	5
	20
	15
	10
	22
	23
	6
	17
	14
	8
	11
	7
	0
	3
	11
	17
	21
	16
	1
	4
	0
	3
	13
	17
	12
	19
	15
	14
	4
	15
	16
	21
	14
	8
	11
	4
	0
	19
	11
	17
	14
	8
	13
	4
	0
	3
	1
	16
	21
	4
	15
	3
	14
	2
	16
	1
	18
	4
